40
463
4
30
29
22
93
0 1
0 3
0 6
0 11
0 12
0 14
0 18
0 19
0 20
0 21
0 24
0 25
0 27
0 30
0 31
0 32
0 39
1 2
1 3
1 4
1 5
1 6
1 8
1 11
1 12
1 13
1 14
1 15
1 19
1 20
1 21
1 22
1 23
1 26
1 28
1 29
1 30
1 31
1 32
1 33
1 34
1 37
1 38
1 39
2 3
2 6
2 7
2 9
2 10
2 11
2 13
2 14
2 15
2 16
2 17
2 18
2 22
2 23
2 24
2 25
2 26
2 27
2 28
2 30
2 31
2 35
2 39
3 4
3 6
3 7
3 8
3 9
3 10
3 11
3 12
3 15
3 16
3 19
3 20
3 21
3 23
3 31
3 33
3 34
3 35
3 36
3 38
3 39
4 6
4 10
4 11
4 13
4 14
4 16
4 18
4 22
4 23
4 31
4 35
4 36
4 37
4 38
4 39
5 6
5 7
5 12
5 13
5 14
5 16
5 17
5 19
5 21
5 22
5 24
5 26
5 29
5 30
5 32
5 34
5 35
5 37
5 39
6 8
6 9
6 14
6 15
6 17
6 19
6 22
6 24
6 26
6 28
6 32
6 34
6 39
7 8
7 10
7 12
7 14
7 17
7 19
7 22
7 23
7 24
7 25
7 26
7 28
7 29
7 33
7 34
7 35
7 36
7 37
8 9
8 10
8 11
8 12
8 14
8 15
8 16
8 19
8 21
8 25
8 26
8 27
8 29
8 30
8 32
8 33
8 36
8 37
8 38
9 10
9 11
9 12
9 13
9 16
9 17
9 21
9 22
9 23
9 25
9 26
9 29
9 30
9 32
9 33
9 34
9 36
9 37
9 38
9 39
10 11
10 13
10 15
10 17
10 18
10 19
10 20
10 22
10 23
10 25
10 26
10 30
10 32
10 34
10 36
10 37
11 12
11 13
11 14
11 16
11 17
11 19
11 21
11 22
11 23
11 24
11 26
11 30
11 31
11 32
11 34
11 37
11 38
12 13
12 14
12 15
12 16
12 18
12 19
12 22
12 23
12 24
12 25
12 26
12 27
12 29
12 30
12 31
12 32
12 33
12 35
12 37
12 39
13 14
13 15
13 18
13 19
13 23
13 24
13 25
13 26
13 28
13 29
13 30
13 33
13 34
13 38
14 19
14 20
14 21
14 22
14 25
14 26
14 27
14 28
14 29
14 30
14 31
14 32
14 33
14 34
14 35
14 36
14 38
14 39
15 16
15 17
15 19
15 21
15 22
15 23
15 24
15 26
15 27
15 28
15 29
15 31
15 32
15 34
15 35
15 37
15 38
15 39
16 20
16 21
16 22
16 23
16 25
16 26
16 27
16 28
16 29
16 32
16 33
16 35
16 36
16 37
16 39
17 18
17 20
17 21
17 23
17 24
17 25
17 28
17 29
17 30
17 33
17 36
17 38
17 39
18 21
18 22
18 24
18 27
18 28
18 29
18 30
18 31
18 33
18 34
18 35
18 37
18 39
19 20
19 21
19 22
19 23
19 26
19 28
19 29
19 30
19 31
19 32
19 35
19 38
19 39
20 24
20 28
20 29
20 30
20 35
20 37
20 39
21 23
21 24
21 25
21 26
21 27
21 28
21 29
21 30
21 32
21 34
22 23
22 24
22 26
22 27
22 28
22 29
22 30
22 31
22 32
22 38
23 25
23 26
23 29
23 30
23 31
23 32
23 34
23 35
23 36
23 38
23 39
24 25
24 27
24 29
24 30
24 33
24 34
24 35
24 38
24 39
25 26
25 27
25 29
25 31
25 32
25 33
25 35
25 37
25 38
25 39
26 28
26 30
26 31
26 33
26 35
26 36
26 37
26 39
27 28
27 32
27 33
27 34
27 35
27 37
27 39
28 29
28 30
28 31
28 32
28 33
28 34
28 36
28 37
28 38
28 39
29 30
29 33
29 34
29 36
29 37
29 38
30 31
30 33
30 36
30 37
30 38
31 33
31 34
31 35
31 37
31 38
31 39
32 34
32 35
32 36
32 38
33 34
33 35
33 36
33 37
33 38
33 39
34 36
34 39
36 37
36 38
38 39
9 1 16 28 22 27 25 32 20 12
17 35 11 3 8 34 31 14 23 4
39 33 13 6 10 36 26 15 37 0
18 38 30 5 21 24 19 2 7 29
